(set-logic QF_SLIA)
(declare-fun var0 () String)
(assert (str.in_re var0 (re.++ ((_ re.loop 14 440) (re.++ (re.union (str.to_re "'") (re.union (str.to_re ":w0") (re.union (str.to_re "T") (str.to_re "Z")))) (re.++ (re.union (str.to_re "C") (re.union (str.to_re "g\u0022Q") (re.union (str.to_re "7") (str.to_re "d")))) (re.++ (re.union (str.to_re "5") (re.union (str.to_re "&wq") (re.union (str.to_re "YR") (str.to_re "Dfe")))) (re.union (str.to_re "f3b") (re.union (str.to_re "%kB") (re.union (str.to_re "z4") (str.to_re "(K&")))))))) (re.++ ((_ re.loop 11 458) (re.++ (re.union (str.to_re "D") (re.union (str.to_re "^") (re.union (str.to_re "C") (str.to_re "ac&")))) (re.++ (re.union (str.to_re "yqZ") (re.union (str.to_re "Z-") (re.union (str.to_re "JP#") (str.to_re "`")))) (re.++ (re.union (str.to_re ".m\\") (re.union (str.to_re "6") (re.union (str.to_re "b") (str.to_re "!{")))) (re.union (str.to_re "gy") (re.union (str.to_re "|") (re.union (str.to_re "8") (str.to_re "&")))))))) (re.++ ((_ re.loop 6 416) (re.++ (re.union (str.to_re "s") (re.union (str.to_re "oR_") (re.union (str.to_re "^B") (str.to_re "0")))) (re.++ (re.union (str.to_re "~Y") (re.union (str.to_re "ZLh") (re.union (str.to_re "<f(") (str.to_re "F")))) (re.++ (re.union (str.to_re "ey") (re.union (str.to_re "4yl") (re.union (str.to_re "p") (str.to_re "/Y")))) (re.union (str.to_re ";i") (re.union (str.to_re ">") (re.union (str.to_re "EB") (str.to_re "8&")))))))) ((_ re.loop 4 776) (re.++ (re.union (str.to_re "C-") (re.union (str.to_re "'") (re.union (str.to_re "zJ") (str.to_re "H")))) (re.++ (re.union (str.to_re "A+l") (re.union (str.to_re "CC") (re.union (str.to_re "l|F") (str.to_re "}I")))) (re.++ (re.union (str.to_re "x") (re.union (str.to_re "1,") (re.union (str.to_re "4e") (str.to_re "8J")))) (re.union (str.to_re "ut") (re.union (str.to_re "]_A") (re.union (str.to_re "zm1") (str.to_re "+m;")))))))))))))
(assert (not (str.in_re var0 (re.++ ((_ re.loop 14 693) (re.++ (re.union (str.to_re "8~") (re.union (str.to_re "4*.") (re.union (str.to_re "Zo") (str.to_re "T]C")))) (re.++ (re.union (str.to_re "y") (re.union (str.to_re "5") (re.union (str.to_re "aJ") (str.to_re "%F{")))) (re.++ (re.union (str.to_re "E") (re.union (str.to_re "v") (re.union (str.to_re "_]") (str.to_re "3;")))) (re.union (str.to_re ",},") (re.union (str.to_re "cJK") (re.union (str.to_re "R-") (str.to_re "C")))))))) (re.++ ((_ re.loop 3 970) (re.++ (re.union (str.to_re "!P*") (re.union (str.to_re "&z") (re.union (str.to_re "P)Q") (str.to_re "X]U")))) (re.++ (re.union (str.to_re "A\\") (re.union (str.to_re "$5c") (re.union (str.to_re ">") (str.to_re "az")))) (re.++ (re.union (str.to_re "(UR") (re.union (str.to_re "z@+") (re.union (str.to_re ":/") (str.to_re "@*3")))) (re.union (str.to_re "80]") (re.union (str.to_re "c") (re.union (str.to_re "MV") (str.to_re "}")))))))) (re.++ ((_ re.loop 17 127) (re.++ (re.union (str.to_re "M") (re.union (str.to_re "~(") (re.union (str.to_re "c0") (str.to_re "k:")))) (re.++ (re.union (str.to_re "Mhf") (re.union (str.to_re "8kD") (re.union (str.to_re "J") (str.to_re "2Wj")))) (re.++ (re.union (str.to_re "Pc") (re.union (str.to_re ",/") (re.union (str.to_re "/N}") (str.to_re "!")))) (re.union (str.to_re "\\") (re.union (str.to_re "G5X") (re.union (str.to_re "\u0022z") (str.to_re "fLN")))))))) ((_ re.loop 3 512) (re.++ (re.union (str.to_re "#") (re.union (str.to_re "2c*") (re.union (str.to_re "/") (str.to_re ")")))) (re.++ (re.union (str.to_re "2g\\") (re.union (str.to_re "K") (re.union (str.to_re "|") (str.to_re "DO")))) (re.++ (re.union (str.to_re "A4") (re.union (str.to_re "a2m") (re.union (str.to_re "b&") (str.to_re "E")))) (re.union (str.to_re "{") (re.union (str.to_re "F") (re.union (str.to_re ",Q") (str.to_re "K8\\"))))))))))))))
(assert (not (str.in_re var0 (re.++ (re.* re.allchar) (re.++ (re.union (str.to_re "<") (re.union (str.to_re ">") (re.union (str.to_re "'") (re.union (str.to_re "\u0022") (str.to_re "&"))))) (re.* re.allchar))))))
(assert (<= 50 (str.len var0)))
(check-sat)
(get-model)
